5 6 76
3 1 1 4 2 3 3 9 21 21 49 49 73 
2 1 2 5 2 22 46 56 70 
3 2 1 2 2 2 3 4 36 36 48 48 76 
5 4 1 3 1 3 2 5 1 1 3 3 15 15 35 35 41 41 51 51 69 
7 4 1 4 2 3 3 3 3 1 3 1 3 5 2 0 3 15 19 40 41 41 45 45 46 46 48 51 56 
9 2 1 1 1 1 1 3 1 3 1 1 2 1 2 5 1 5 1 0 4 4 7 7 9 9 12 12 15 17 21 21 22 22 26 26 29 
